q,S11,S22,S12
1.00 ,,,
1.05 ,,,
1.10 ,,,
1.15 ,,,
1.20 ,,,
1.25 ,,,
1.30 ,,,
1.35 ,,,
1.40 ,,,
1.45 ,,,
1.50 ,,,
1.55 ,,,
1.60 ,,,
1.65 ,,,
1.70 ,,,
1.75 ,,,
1.80 ,,,
1.85 ,,,
1.90 ,,,
1.95 ,,,
2.00 ,,,
2.05 ,,,
2.10 ,,,
2.15 ,,,
2.20 ,,,
2.25 ,,,
2.30 ,,,
2.35 ,,,
2.40 ,,,
2.45 ,,,
2.50 ,,,
2.55 ,,,
2.60 ,,,
2.65 ,,,
2.70 ,,,
2.75 ,,,
2.80 ,,,
2.85 ,,,
2.90 ,,,
2.95 ,,,
3.00 ,,,
3.05 ,,,
3.10 ,,,
3.15 ,,,
3.20 ,,,
3.25 ,,,
3.30 ,,,
3.35 ,,,
3.40 ,,,
3.45 ,,,
3.50 ,,,
3.55 ,,,
3.60 ,,,
3.65 ,,,
3.70 ,,,
3.75 ,,,
3.80 ,,,
3.85 ,,,
3.90 ,,,
3.95 ,,,
4.00 ,,,
4.05 ,,,
4.10 ,,,
4.15 ,,,
4.20 ,,,
4.25 ,,,
4.30 ,,,
4.35 ,,,
4.40 ,,,
4.45 ,,,
4.50 ,,,
4.60 ,,,
4.70 ,,,
4.80 ,,,
4.90 ,,,
5.00 ,,,
5.10 ,,,
5.20 ,,,
5.30 ,,,
5.40 ,,,
5.50 ,,,
5.60 ,,,
5.70 ,,,
5.80 ,,,
5.90 ,,,
6.00 ,,,
6.10 ,,,
6.20 ,,,
6.30 ,,,
6.40 ,,,
6.50 ,,,
6.60 ,,,
6.70 ,,,
6.80 ,,,
6.90 ,,,
7.00 ,,,
7.20 ,,,
7.40 ,,,
7.60 ,,,
7.80 ,,,
8.00 ,,,
8.20 ,,,
8.40 ,,,
8.60 ,,,
8.80 ,,,
9.00 ,,,
9.20 ,,,
9.40 ,,,
9.60 ,,,
9.80 ,,,
10.00 ,,,
10.20 ,,,
10.40 ,,,
10.60 ,,,
10.80 ,,,
11.00 ,,,
11.20 ,,,
11.40 ,,,
11.60 ,,,
11.80 ,,,
12.00 ,,,
